nN = 6;
nR = 15;
nH = 1;

a = [[22, 16, 22, 21, 22, 23, 15, 22, 20, 6, 14, 11, 15, 9, 13], [11, 14, 18, 21, 17, 12, 15, 21, 19, 16, 18, 21, 23, 25, 8], [11, 7, 9, 8, 9, 20, 23, 14, 7, 15, 8, 14, 16, 10, 23], [21, 11, 14, 18, 19, 19, 14, 23, 15, 19, 18, 19, 18, 7, 24], [18, 22, 22, 10, 19, 6, 20, 12, 5, 11, 15, 13, 7, 6, 16], [24, 24, 24, 21, 14, 20, 7, 7, 9, 20, 15, 24, 7, 15, 16]];
c = [[[0, 0, 0, 0, 0, 0, 0, 0, 0, 0, 0, 0, 0, 0, 0], [47, 31, 32, 47, 46, 49, 38, 35, 49, 31, 43, 40, 44, 50, 30], [43, 39, 45, 30, 49, 30, 41, 43, 32, 30, 41, 42, 44, 44, 48], [47, 34, 48, 45, 45, 32, 49, 35, 32, 38, 39, 42, 47, 46, 41], [42, 37, 36, 50, 36, 50, 49, 43, 43, 50, 40, 49, 47, 39, 50], [38, 38, 48, 43, 31, 48, 37, 32, 31, 40, 33, 34, 40, 38, 44]], [[0, 0, 0, 0, 0, 0, 0, 0, 0, 0, 0, 0, 0, 0, 0], [0, 0, 0, 0, 0, 0, 0, 0, 0, 0, 0, 0, 0, 0, 0], [33, 39, 37, 46, 47, 47, 49, 35, 32, 34, 35, 34, 36, 33, 39], [37, 43, 49, 44, 31, 30, 34, 49, 39, 43, 38, 39, 42, 50, 38], [46, 47, 41, 45, 31, 49, 47, 39, 50, 35, 39, 41, 43, 34, 45], [46, 38, 47, 44, 31, 31, 46, 49, 37, 47, 39, 38, 49, 46, 44]], [[0, 0, 0, 0, 0, 0, 0, 0, 0, 0, 0, 0, 0, 0, 0], [0, 0, 0, 0, 0, 0, 0, 0, 0, 0, 0, 0, 0, 0, 0], [0, 0, 0, 0, 0, 0, 0, 0, 0, 0, 0, 0, 0, 0, 0], [40, 36, 33, 36, 45, 37, 41, 46, 32, 31, 30, 47, 38, 30, 40], [39, 40, 49, 35, 49, 38, 40, 49, 44, 34, 47, 44, 36, 41, 41], [40, 44, 43, 50, 34, 47, 40, 30, 48, 50, 46, 42, 41, 35, 38]], [[0, 0, 0, 0, 0, 0, 0, 0, 0, 0, 0, 0, 0, 0, 0], [0, 0, 0, 0, 0, 0, 0, 0, 0, 0, 0, 0, 0, 0, 0], [0, 0, 0, 0, 0, 0, 0, 0, 0, 0, 0, 0, 0, 0, 0], [0, 0, 0, 0, 0, 0, 0, 0, 0, 0, 0, 0, 0, 0, 0], [46, 32, 30, 34, 37, 33, 44, 41, 38, 40, 39, 45, 47, 46, 34], [35, 48, 37, 34, 32, 30, 35, 39, 48, 35, 47, 39, 48, 46, 35]], [[0, 0, 0, 0, 0, 0, 0, 0, 0, 0, 0, 0, 0, 0, 0], [0, 0, 0, 0, 0, 0, 0, 0, 0, 0, 0, 0, 0, 0, 0], [0, 0, 0, 0, 0, 0, 0, 0, 0, 0, 0, 0, 0, 0, 0], [0, 0, 0, 0, 0, 0, 0, 0, 0, 0, 0, 0, 0, 0, 0], [0, 0, 0, 0, 0, 0, 0, 0, 0, 0, 0, 0, 0, 0, 0], [40, 43, 38, 37, 48, 38, 39, 38, 30, 46, 47, 36, 46, 31, 44]], [[0, 0, 0, 0, 0, 0, 0, 0, 0, 0, 0, 0, 0, 0, 0], [0, 0, 0, 0, 0, 0, 0, 0, 0, 0, 0, 0, 0, 0, 0], [0, 0, 0, 0, 0, 0, 0, 0, 0, 0, 0, 0, 0, 0, 0], [0, 0, 0, 0, 0, 0, 0, 0, 0, 0, 0, 0, 0, 0, 0], [0, 0, 0, 0, 0, 0, 0, 0, 0, 0, 0, 0, 0, 0, 0], [0, 0, 0, 0, 0, 0, 0, 0, 0, 0, 0, 0, 0, 0, 0]]];
Q = [[34], [26], [33], [32], [36], [34]];

q = [[[5], [15], [14], [19], [25], [12], [22], [25], [12], [19], [13], [6], [24], [24], [19]], [[8], [25], [18], [12], [10], [7], [7], [19], [13], [17], [5], [9], [10], [11], [23]], [[21], [8], [25], [20], [23], [25], [21], [5], [15], [18], [10], [17], [9], [8], [17]], [[10], [19], [15], [23], [16], [10], [15], [24], [16], [21], [15], [9], [14], [23], [6]], [[15], [20], [25], [15], [7], [14], [16], [25], [18], [24], [12], [12], [24], [20], [22]], [[24], [11], [21], [7], [25], [17], [21], [22], [9], [17], [11], [10], [7], [24], [22]]];
p = [0.69, 0.71, 0.1, 0.02, 0.65, 0.21, 0.02, 0.81, 0.69, 0.92, 0.96, 0.02, 0.87, 0.04, 0.02];
